895481
4 31 3290
31 19 24202
19 29 17244
29 36 941
36 25 14546
25 32 15458
32 11 3967
11 33 39715
33 28 35284
28 37 745
37 22 7449
22 24 11530
24 38 4093
38 30 9087
30 27 12751
27 12 6411
12 6 23211
6 35 11794
35 5 22446
5 8 47658
8 16 102410
16 13 42391
13 2 30026
2 15 71701
15 14 36816
14 7 26227
7 10 17581
10 34 5412
34 9 6355
9 0 6947
0 20 6578
20 1 11546
1 26 15288
26 17 12606
17 39 18404
39 18 13572
18 3 26533
3 21 23621
21 23 45980
23 4 63665
